(set-info :smt-lib-version 2.6)
(set-logic QF_S)
(set-info :source |
Generated by: Murphy Berzish, Mitja Kulczynski, Federico Mora, Florin Manea, Joel Day, Dirk Nowotka, Vijay Ganesh, Zhengyang Lu
Generated on: 2020-10-01
Description: Translated from a collection of real-world regex queries, AutomataArk, collected by Loris D’Antoni and Fang Wang: https://github.com/lorisdanto/automatark
Application: Evaluate solvers on real-world regex queries
Target solver: Z3str3RE, CVC4, OSTRICH, Z3seq, Z3str3, Z3-Trau
Publications: Berzish, M., Kulczynski, M., Mora, F., Manea, F., Day, J. D., Nowotka, D., & Ganesh, V. (2021, July). An SMT solver for regular expressions and linear arithmetic over string length. In CAV 2021.
|)
(set-info :license "https://creativecommons.org/licenses/by/4.0/")
(set-info :category "industrial")
(set-info :status unsat)

(declare-const X String)
(assert (str.in_re X (re.++ (str.to_re "/") ((_ re.loop 75 75) (re.++ (re.range "0" "2") (re.range "0" "9") (re.range "0" "9"))) (str.to_re "/P\u{a}"))))
(assert (str.in_re X (re.++ (re.union (re.++ (str.to_re "4915") (re.range "0" "1")) (re.++ (str.to_re "491") (re.range "0" "4") (re.range "0" "9")) (re.++ (str.to_re "490") (re.range "0" "9") (re.range "0" "9")) (re.++ (str.to_re "4") (re.range "0" "8") ((_ re.loop 3 3) (re.range "0" "9"))) (re.++ (re.range "1" "3") ((_ re.loop 4 4) (re.range "0" "9"))) (re.++ (re.range "1" "9") ((_ re.loop 0 3) (re.range "0" "9"))) (str.to_re "0")) (str.to_re "\u{a}"))))
(assert (str.in_re X (re.union (re.++ (str.to_re "protected") (re.* re.allchar) (str.to_re "public")) (re.++ (str.to_re "private") (re.* re.allchar) (str.to_re "protected")) (re.++ (str.to_re "\u{a}private") (re.* re.allchar) (str.to_re "public")))))
(assert (str.in_re X (re.++ (str.to_re "/.por") (re.union (str.to_re "?") (str.to_re "\u{5c}") (str.to_re "/")) (str.to_re "/smiU\u{a}"))))
(check-sat)

(exit)
